% seed = 0

mint = 30;
% maxt = 81;

nActs = 32;
dur = [0,3,3,2,4,1,2,2,3,4,2,1,1,3,1,3,4,2,5,2,3,3,2,3,1,3,3,3,5,4,3,0];

nSkills = 12;
sreq = [| 0,0,0,0,0,0,0,0,0,0,0,0,
	| 0,0,0,0,0,0,0,1,2,0,1,0,
	| 0,0,1,0,0,0,0,1,0,0,0,0,
	| 0,0,0,0,0,1,0,0,1,0,1,0,
	| 0,1,0,0,0,1,0,0,2,0,0,0,
	| 0,0,0,1,2,0,0,0,1,0,1,0,
	| 0,0,0,0,0,0,0,0,1,0,0,0,
	| 0,0,1,0,0,0,0,0,0,1,0,0,
	| 0,0,1,0,0,0,0,0,0,1,1,0,
	| 0,0,1,0,0,0,0,0,0,1,2,0,
	| 0,0,0,0,0,0,0,0,1,0,1,0,
	| 0,0,0,0,0,2,0,0,0,0,1,0,
	| 0,0,1,0,0,0,0,1,0,2,0,0,
	| 0,0,0,1,0,0,0,0,0,0,0,0,
	| 0,0,0,0,0,0,0,0,0,0,3,1,
	| 0,0,0,0,0,0,1,0,0,2,1,0,
	| 0,0,1,0,0,0,1,0,0,0,1,0,
	| 0,1,0,0,0,1,0,1,1,1,0,0,
	| 0,0,0,0,1,0,0,0,0,0,1,0,
	| 1,0,0,1,0,0,0,1,0,0,0,0,
	| 0,0,0,0,0,0,0,1,1,2,0,0,
	| 0,0,0,0,1,0,0,0,0,0,2,0,
	| 0,0,0,0,0,0,0,0,1,1,3,0,
	| 0,0,0,0,0,0,0,0,1,0,0,0,
	| 0,0,0,0,1,0,0,0,0,1,0,0,
	| 0,0,0,0,1,0,0,1,1,0,1,0,
	| 0,1,0,0,0,0,1,0,1,0,0,0,
	| 0,0,0,0,1,0,0,1,0,1,0,0,
	| 0,0,0,0,0,0,0,1,0,0,0,0,
	| 0,0,1,1,1,2,0,0,0,0,0,0,
	| 0,0,1,0,1,0,0,1,0,0,1,0,
	| 0,0,0,0,0,0,0,0,0,0,0,0, |];

% SumOfsreq = 94;

nResources = 17;
mastery = [| false,false,false,false,false,false,false,false,false,true,true,true,
	| false,false,false,false,true,true,false,false,false,false,false,false,
	| false,false,false,false,false,false,false,false,false,true,true,true,
	| false,false,false,false,false,false,true,true,true,false,false,false,
	| false,false,false,false,false,false,false,true,true,false,false,false,
	| true,true,true,true,true,true,false,false,false,false,false,false,
	| false,true,true,false,false,false,true,true,true,true,true,true,
	| false,false,false,true,true,true,false,false,false,false,false,false,
	| false,false,false,false,false,false,false,false,false,false,true,true,
	| false,false,true,false,false,false,true,true,true,false,false,false,
	| false,false,false,false,false,false,false,false,false,true,true,true,
	| false,false,true,false,false,true,false,false,false,false,false,false,
	| false,false,false,true,true,true,false,false,true,false,false,false,
	| false,false,false,false,false,false,false,false,false,true,true,true,
	| false,false,false,true,true,true,false,false,false,false,false,false,
	| false,false,false,false,false,false,false,false,true,false,true,true,
	| false,false,false,true,true,true,false,false,false,false,false,false, |];

nPrecs = 58;
pred = [1,1,1,2,2,2,3,3,4,4,4,5,6,7,7,7,8,8,8,9,9,9,10,10,10,11,11,12,12,12,13,13,14,14,15,16,17,17,17,18,18,18,19,19,19,20,21,22,22,23,24,25,26,27,28,29,30,31];
succ = [2,3,4,15,7,8,9,16,26,5,6,7,20,10,11,14,20,13,24,21,14,22,25,19,16,17,12,18,13,24,29,31,25,23,30,17,18,22,23,27,20,29,28,30,23,21,31,27,28,24,27,28,30,31,29,32,32,32];

nUnrels = 216;
unpred = [2,2,2,2,2,2,3,3,3,3,3,3,3,3,3,3,3,3,3,4,4,4,5,5,5,5,5,6,6,6,6,6,6,6,6,6,6,6,6,6,6,6,6,6,6,6,6,6,6,7,7,7,7,8,8,8,8,8,8,8,8,8,8,8,8,8,8,8,8,9,9,9,9,9,9,9,9,9,9,9,9,10,10,10,10,10,10,11,11,11,11,11,11,11,12,12,12,12,12,12,12,12,12,12,12,13,13,13,13,13,13,13,13,13,13,13,13,13,13,13,13,14,14,14,14,14,14,14,14,14,14,15,15,15,15,15,15,15,15,15,15,15,15,15,15,15,16,16,16,16,17,17,17,17,18,18,18,18,18,18,18,18,19,19,19,19,19,20,20,20,20,20,20,20,20,20,21,21,21,21,21,21,21,21,21,22,22,22,22,22,23,23,23,23,23,24,24,24,24,24,25,25,25,25,26,26,26,26,27,27,27,28,28,29,29,30];
unsucc = [3,4,5,6,9,26,4,5,6,7,8,10,11,12,13,15,19,26,30,8,9,15,6,8,9,15,26,7,8,9,10,11,12,13,14,15,16,17,18,19,22,23,24,25,26,27,28,29,30,8,9,15,26,9,10,11,12,14,15,16,17,18,19,22,23,25,26,28,30,10,11,12,13,15,16,17,18,19,20,26,30,11,12,13,14,15,26,14,15,16,19,25,26,30,14,15,16,17,19,22,23,25,26,28,30,14,15,16,17,18,19,20,21,22,23,24,25,26,27,28,30,15,16,17,18,19,20,21,22,26,30,16,17,18,19,20,21,22,23,24,25,26,27,28,29,31,19,25,26,30,19,25,26,30,19,22,23,24,25,26,28,30,20,21,22,25,26,22,23,24,25,26,27,28,29,30,22,23,24,25,26,27,28,29,30,23,24,25,26,30,25,26,28,29,30,25,26,28,29,30,26,27,30,31,27,28,29,31,28,29,30,30,31,30,31,31];

USEFUL_RES = [{},
	{1,3,4,5,7,9,10,11,13,14,16},
	{4,5,6,7,10,12},
	{1,2,3,4,5,6,7,8,9,10,11,12,13,14,15,16,17},
	{2,4,5,6,7,8,10,12,13,15,16,17},
	{1,2,3,4,5,6,7,8,9,10,11,13,14,15,16,17},
	{4,5,7,10,13,16},
	{1,3,6,7,10,11,12,14},
	{1,3,6,7,9,10,11,12,14,16},
	{1,3,6,7,9,10,11,12,14,16},
	{1,3,4,5,7,9,10,11,13,14,16},
	{1,2,3,6,7,8,9,11,12,13,14,15,16,17},
	{1,3,4,5,6,7,10,11,12,14},
	{6,8,13,15,17},
	{1,3,7,9,11,14,16},
	{1,3,4,7,9,10,11,14,16},
	{1,3,4,6,7,9,10,11,12,14,16},
	{1,2,3,4,5,6,7,8,10,11,12,13,14,15,16,17},
	{1,2,3,6,7,8,9,11,13,14,15,16,17},
	{4,5,6,7,8,10,13,15,17},
	{1,3,4,5,7,10,11,13,14,16},
	{1,2,3,6,7,8,9,11,13,14,15,16,17},
	{1,3,4,5,7,9,10,11,13,14,16},
	{4,5,7,10,13,16},
	{1,2,3,6,7,8,11,13,14,15,17},
	{1,2,3,4,5,6,7,8,9,10,11,13,14,15,16,17},
	{4,5,6,7,10,13,16},
	{1,2,3,4,5,6,7,8,10,11,13,14,15,17},
	{4,5,7,10},
	{2,6,7,8,10,12,13,15,17},
	{1,2,3,4,5,6,7,8,9,10,11,12,13,14,15,16,17},
	{}];

POTENTIAL_ACT = [{2,4,6,8,9,10,11,12,13,15,16,17,18,19,21,22,23,25,26,28,31},
	{4,5,6,12,18,19,22,25,26,28,30,31},
	{2,4,6,8,9,10,11,12,13,15,16,17,18,19,21,22,23,25,26,28,31},
	{2,3,4,5,6,7,11,13,16,17,18,20,21,23,24,26,27,28,29,31},
	{2,3,4,5,6,7,11,13,18,20,21,23,24,26,27,28,29,31},
	{3,4,5,6,8,9,10,12,13,14,17,18,19,20,22,25,26,27,28,30,31},
	{2,3,4,5,6,7,8,9,10,11,12,13,15,16,17,18,19,20,21,22,23,24,25,26,27,28,29,30,31},
	{4,5,6,12,14,18,19,20,22,25,26,28,30,31},
	{2,4,6,9,10,11,12,15,16,17,19,22,23,26,31},
	{2,3,4,5,6,7,8,9,10,11,13,16,17,18,20,21,23,24,26,27,28,29,30,31},
	{2,4,6,8,9,10,11,12,13,15,16,17,18,19,21,22,23,25,26,28,31},
	{3,4,5,8,9,10,12,13,17,18,30,31},
	{2,4,5,6,7,11,12,14,18,19,20,21,22,23,24,25,26,27,28,30,31},
	{2,4,6,8,9,10,11,12,13,15,16,17,18,19,21,22,23,25,26,28,31},
	{4,5,6,12,14,18,19,20,22,25,26,28,30,31},
	{2,4,5,6,7,9,10,11,12,15,16,17,18,19,21,22,23,24,26,27,31},
	{4,5,6,12,14,18,19,20,22,25,26,28,30,31}];
